NAME : instances/clustered-mixed-tsp/instance-47.tsp
COMMENT : No Comment
TYPE : TSP
DIMENSION: 45
EDGE_WEIGHT_TYPE : EUC_2D
NODE_COORD_SECTION
1 537 420 
2 691 358 
3 260 1554 
4 1113 1592 
5 1078 1466 
6 675 425 
7 673 425 
8 196 1633 
9 255 1576 
10 606 448 
11 900 454 
12 573 403 
13 1179 1592 
14 1133 1551 
15 709 1453 
16 1183 1583 
17 1725 886 
18 178 1520 
19 1203 1474 
20 1723 964 
21 206 1568 
22 1121 1990 
23 1708 817 
24 524 412 
25 1107 2005 
26 458 1829 
27 1681 870 
28 569 275 
29 1084 1462 
30 597 452 
31 499 1932 
32 317 1539 
33 572 300 
34 216 1525 
35 1684 858 
36 1046 1620 
37 1021 1607 
38 1179 1505 
39 168 1538 
40 1704 855 
41 1154 1586 
42 1135 1881 
43 1013 1595 
44 1019 529 
45 1089 1524 
EOF
